; Copyright (c) 2026 The RIINA Authors. All rights reserved.
; Auto-generated from 02_FORMAL/coq/domains/TotalStackFoundation.v (51 validations)
; Generated by scripts/generate-full-stack.py
;
; Translation Validation for TotalStackFoundation
; Layer 9: Verifies compiler backend preserves formal semantics.
; Each assertion checks source IR ≡ target code for a proven property.

(set-logic QF_LIA)
(set-option :produce-models true)

; IR node representation
(declare-sort IRNode 0)
(declare-sort TargetNode 0)

; layer_eqb: source semantics (matches Coq)
(declare-fun source_layer_eqb () Bool)
(declare-fun target_layer_eqb () Bool)
(assert (= source_layer_eqb target_layer_eqb))

; layer_index: source semantics (matches Coq)
(declare-fun source_layer_index () Bool)
(declare-fun target_layer_index () Bool)
(assert (= source_layer_index target_layer_index))

; layer_adjacent: source semantics (matches Coq)
(declare-fun source_layer_adjacent () Bool)
(declare-fun target_layer_adjacent () Bool)
(assert (= source_layer_adjacent target_layer_adjacent))

; sp_eqb: source semantics (matches Coq)
(declare-fun source_sp_eqb () Bool)
(declare-fun target_sp_eqb () Bool)
(assert (= source_sp_eqb target_sp_eqb))

; layer_defends: source semantics (matches Coq)
(declare-fun source_layer_defends () Bool)
(declare-fun target_layer_defends () Bool)
(assert (= source_layer_defends target_layer_defends))

; all_layers_verified: source semantics (matches Coq)
(declare-fun source_all_layers_verified () Bool)
(declare-fun target_all_layers_verified () Bool)
(assert (= source_all_layers_verified target_all_layers_verified))

; interface_verified: source semantics (matches Coq)
(declare-fun source_interface_verified () Bool)
(declare-fun target_interface_verified () Bool)
(assert (= source_interface_verified target_interface_verified))

; property_preserved: source semantics (matches Coq)
(declare-fun source_property_preserved () Bool)
(declare-fun target_property_preserved () Bool)
(assert (= source_property_preserved target_property_preserved))

; attack_blocked: source semantics (matches Coq)
(declare-fun source_attack_blocked () Bool)
(declare-fun target_attack_blocked () Bool)
(assert (= source_attack_blocked target_attack_blocked))

; layer_in_stack: source semantics (matches Coq)
(declare-fun source_layer_in_stack () Bool)
(declare-fun target_layer_in_stack () Bool)
(assert (= source_layer_in_stack target_layer_in_stack))

; layer_verified_in_stack: source semantics (matches Coq)
(declare-fun source_layer_verified_in_stack () Bool)
(declare-fun target_layer_verified_in_stack () Bool)
(assert (= source_layer_verified_in_stack target_layer_verified_in_stack))

; property_in_layer: source semantics (matches Coq)
(declare-fun source_property_in_layer () Bool)
(declare-fun target_property_in_layer () Bool)
(assert (= source_property_in_layer target_property_in_layer))

; all_interfaces_verified: source semantics (matches Coq)
(declare-fun source_all_interfaces_verified () Bool)
(declare-fun target_all_interfaces_verified () Bool)
(assert (= source_all_interfaces_verified target_all_interfaces_verified))

; has_all_layers: source semantics (matches Coq)
(declare-fun source_has_all_layers () Bool)
(declare-fun target_has_all_layers () Bool)
(assert (= source_has_all_layers target_has_all_layers))

; make_layer_verif: source semantics (matches Coq)
(declare-fun source_make_layer_verif () Bool)
(declare-fun target_make_layer_verif () Bool)
(assert (= source_make_layer_verif target_make_layer_verif))

; complete_stack_state: source semantics (matches Coq)
(declare-fun source_complete_stack_state () Bool)
(declare-fun target_complete_stack_state () Bool)
(assert (= source_complete_stack_state target_complete_stack_state))

; interface_secure: source semantics (matches Coq)
(declare-fun source_interface_secure () Bool)
(declare-fun target_interface_secure () Bool)
(assert (= source_interface_secure target_interface_secure))

; property_preserved_across_layers: source semantics (matches Coq)
(declare-fun source_property_preserved_across_layers () Bool)
(declare-fun target_property_preserved_across_layers () Bool)
(assert (= source_property_preserved_across_layers target_property_preserved_across_layers))

; layer_compromised: source semantics (matches Coq)
(declare-fun source_layer_compromised () Bool)
(declare-fun target_layer_compromised () Bool)
(assert (= source_layer_compromised target_layer_compromised))

; hardware_root_of_trust: source semantics (matches Coq)
(declare-fun source_hardware_root_of_trust () Bool)
(declare-fun target_hardware_root_of_trust () Bool)
(assert (= source_hardware_root_of_trust target_hardware_root_of_trust))

; measured_boot_integrity: source semantics (matches Coq)
(declare-fun source_measured_boot_integrity () Bool)
(declare-fun target_measured_boot_integrity () Bool)
(assert (= source_measured_boot_integrity target_measured_boot_integrity))

; secure_channel: source semantics (matches Coq)
(declare-fun source_secure_channel () Bool)
(declare-fun target_secure_channel () Bool)
(assert (= source_secure_channel target_secure_channel))

; capability_delegation_correct: source semantics (matches Coq)
(declare-fun source_capability_delegation_correct () Bool)
(declare-fun target_capability_delegation_correct () Bool)
(assert (= source_capability_delegation_correct target_capability_delegation_correct))

; end_to_end_encryption: source semantics (matches Coq)
(declare-fun source_end_to_end_encryption () Bool)
(declare-fun target_end_to_end_encryption () Bool)
(assert (= source_end_to_end_encryption target_end_to_end_encryption))

; all_critical_layers_verified: source semantics (matches Coq)
(declare-fun source_all_critical_layers_verified () Bool)
(declare-fun target_all_critical_layers_verified () Bool)
(assert (= source_all_critical_layers_verified target_all_critical_layers_verified))

; layer_eqb_refl: translation preserves property (matches Coq: Lemma)
(declare-fun source_layer_eqb_refl () Bool)
(declare-fun target_layer_eqb_refl () Bool)
(assert (= source_layer_eqb_refl target_layer_eqb_refl))

; layer_eqb_eq: translation preserves property (matches Coq: Lemma)
(declare-fun source_layer_eqb_eq () Bool)
(declare-fun target_layer_eqb_eq () Bool)
(assert (= source_layer_eqb_eq target_layer_eqb_eq))

; layer_adjacent_L0_L1: translation preserves property (matches Coq: Lemma)
(declare-fun source_layer_adjacent_L0_L1 () Bool)
(declare-fun target_layer_adjacent_L0_L1 () Bool)
(assert (= source_layer_adjacent_L0_L1 target_layer_adjacent_L0_L1))

; layer_adjacent_L1_L2: translation preserves property (matches Coq: Lemma)
(declare-fun source_layer_adjacent_L1_L2 () Bool)
(declare-fun target_layer_adjacent_L1_L2 () Bool)
(assert (= source_layer_adjacent_L1_L2 target_layer_adjacent_L1_L2))

; layer_adjacent_L2_L3: translation preserves property (matches Coq: Lemma)
(declare-fun source_layer_adjacent_L2_L3 () Bool)
(declare-fun target_layer_adjacent_L2_L3 () Bool)
(assert (= source_layer_adjacent_L2_L3 target_layer_adjacent_L2_L3))

; layer_adjacent_L3_L4: translation preserves property (matches Coq: Lemma)
(declare-fun source_layer_adjacent_L3_L4 () Bool)
(declare-fun target_layer_adjacent_L3_L4 () Bool)
(assert (= source_layer_adjacent_L3_L4 target_layer_adjacent_L3_L4))

; layer_adjacent_L4_L5: translation preserves property (matches Coq: Lemma)
(declare-fun source_layer_adjacent_L4_L5 () Bool)
(declare-fun target_layer_adjacent_L4_L5 () Bool)
(assert (= source_layer_adjacent_L4_L5 target_layer_adjacent_L4_L5))

; layer_adjacent_L5_L6: translation preserves property (matches Coq: Lemma)
(declare-fun source_layer_adjacent_L5_L6 () Bool)
(declare-fun target_layer_adjacent_L5_L6 () Bool)
(assert (= source_layer_adjacent_L5_L6 target_layer_adjacent_L5_L6))

; layer_adjacent_L6_L7: translation preserves property (matches Coq: Lemma)
(declare-fun source_layer_adjacent_L6_L7 () Bool)
(declare-fun target_layer_adjacent_L6_L7 () Bool)
(assert (= source_layer_adjacent_L6_L7 target_layer_adjacent_L6_L7))

; sp_eqb_refl: translation preserves property (matches Coq: Lemma)
(declare-fun source_sp_eqb_refl () Bool)
(declare-fun target_sp_eqb_refl () Bool)
(assert (= source_sp_eqb_refl target_sp_eqb_refl))

; existsb_app: translation preserves property (matches Coq: Lemma)
(declare-fun source_existsb_app () Bool)
(declare-fun target_existsb_app () Bool)
(assert (= source_existsb_app target_existsb_app))

; existsb_cons_true: translation preserves property (matches Coq: Lemma)
(declare-fun source_existsb_cons_true () Bool)
(declare-fun target_existsb_cons_true () Bool)
(assert (= source_existsb_cons_true target_existsb_cons_true))

; existsb_cons_or: translation preserves property (matches Coq: Lemma)
(declare-fun source_existsb_cons_or () Bool)
(declare-fun target_existsb_cons_or () Bool)
(assert (= source_existsb_cons_or target_existsb_cons_or))

; forallb_impl: translation preserves property (matches Coq: Lemma)
(declare-fun source_forallb_impl () Bool)
(declare-fun target_forallb_impl () Bool)
(assert (= source_forallb_impl target_forallb_impl))

; andb_true_intro_both: translation preserves property (matches Coq: Lemma)
(declare-fun source_andb_true_intro_both () Bool)
(declare-fun target_andb_true_intro_both () Bool)
(assert (= source_andb_true_intro_both target_andb_true_intro_both))

; TOTAL_001_01_l0_l1_interface_security: translation preserves property (matches Coq: Theorem)
(declare-fun source_TOTAL_001_01_l0_l1_interface_security () Bool)
(declare-fun target_TOTAL_001_01_l0_l1_interface_security () Bool)
(assert (= source_TOTAL_001_01_l0_l1_interface_security target_TOTAL_001_01_l0_l1_interface_security))

; TOTAL_001_02_l1_l2_interface_security: translation preserves property (matches Coq: Theorem)
(declare-fun source_TOTAL_001_02_l1_l2_interface_security () Bool)
(declare-fun target_TOTAL_001_02_l1_l2_interface_security () Bool)
(assert (= source_TOTAL_001_02_l1_l2_interface_security target_TOTAL_001_02_l1_l2_interface_security))

; TOTAL_001_03_l2_l3_interface_security: translation preserves property (matches Coq: Theorem)
(declare-fun source_TOTAL_001_03_l2_l3_interface_security () Bool)
(declare-fun target_TOTAL_001_03_l2_l3_interface_security () Bool)
(assert (= source_TOTAL_001_03_l2_l3_interface_security target_TOTAL_001_03_l2_l3_interface_security))

; TOTAL_001_04_l3_l4_interface_security: translation preserves property (matches Coq: Theorem)
(declare-fun source_TOTAL_001_04_l3_l4_interface_security () Bool)
(declare-fun target_TOTAL_001_04_l3_l4_interface_security () Bool)
(assert (= source_TOTAL_001_04_l3_l4_interface_security target_TOTAL_001_04_l3_l4_interface_security))

; TOTAL_001_05_l4_l5_interface_security: translation preserves property (matches Coq: Theorem)
(declare-fun source_TOTAL_001_05_l4_l5_interface_security () Bool)
(declare-fun target_TOTAL_001_05_l4_l5_interface_security () Bool)
(assert (= source_TOTAL_001_05_l4_l5_interface_security target_TOTAL_001_05_l4_l5_interface_security))

; TOTAL_001_06_l5_l6_interface_security: translation preserves property (matches Coq: Theorem)
(declare-fun source_TOTAL_001_06_l5_l6_interface_security () Bool)
(declare-fun target_TOTAL_001_06_l5_l6_interface_security () Bool)
(assert (= source_TOTAL_001_06_l5_l6_interface_security target_TOTAL_001_06_l5_l6_interface_security))

; TOTAL_001_07_l6_l7_interface_security: translation preserves property (matches Coq: Theorem)
(declare-fun source_TOTAL_001_07_l6_l7_interface_security () Bool)
(declare-fun target_TOTAL_001_07_l6_l7_interface_security () Bool)
(assert (= source_TOTAL_001_07_l6_l7_interface_security target_TOTAL_001_07_l6_l7_interface_security))

; TOTAL_001_08_confidentiality_preserved: translation preserves property (matches Coq: Theorem)
(declare-fun source_TOTAL_001_08_confidentiality_preserved () Bool)
(declare-fun target_TOTAL_001_08_confidentiality_preserved () Bool)
(assert (= source_TOTAL_001_08_confidentiality_preserved target_TOTAL_001_08_confidentiality_preserved))

; TOTAL_001_09_integrity_preserved: translation preserves property (matches Coq: Theorem)
(declare-fun source_TOTAL_001_09_integrity_preserved () Bool)
(declare-fun target_TOTAL_001_09_integrity_preserved () Bool)
(assert (= source_TOTAL_001_09_integrity_preserved target_TOTAL_001_09_integrity_preserved))

; TOTAL_001_10_availability_preserved: translation preserves property (matches Coq: Theorem)
(declare-fun source_TOTAL_001_10_availability_preserved () Bool)
(declare-fun target_TOTAL_001_10_availability_preserved () Bool)
(assert (= source_TOTAL_001_10_availability_preserved target_TOTAL_001_10_availability_preserved))

; TOTAL_001_11_authentication_preserved: translation preserves property (matches Coq: Theorem)
(declare-fun source_TOTAL_001_11_authentication_preserved () Bool)
(declare-fun target_TOTAL_001_11_authentication_preserved () Bool)
(assert (= source_TOTAL_001_11_authentication_preserved target_TOTAL_001_11_authentication_preserved))

; TOTAL_001_12_authorization_preserved: translation preserves property (matches Coq: Theorem)
(declare-fun source_TOTAL_001_12_authorization_preserved () Bool)
(declare-fun target_TOTAL_001_12_authorization_preserved () Bool)
(assert (= source_TOTAL_001_12_authorization_preserved target_TOTAL_001_12_authorization_preserved))

; TOTAL_001_13_memory_corruption_impossible: translation preserves property (matches Coq: Theorem)
(declare-fun source_TOTAL_001_13_memory_corruption_impossible () Bool)
(declare-fun target_TOTAL_001_13_memory_corruption_impossible () Bool)
(assert (= source_TOTAL_001_13_memory_corruption_impossible target_TOTAL_001_13_memory_corruption_impossible))

; TOTAL_001_14_side_channel_impossible: translation preserves property (matches Coq: Theorem)
(declare-fun source_TOTAL_001_14_side_channel_impossible () Bool)
(declare-fun target_TOTAL_001_14_side_channel_impossible () Bool)
(assert (= source_TOTAL_001_14_side_channel_impossible target_TOTAL_001_14_side_channel_impossible))

; TOTAL_001_15_network_attack_impossible: translation preserves property (matches Coq: Theorem)
(declare-fun source_TOTAL_001_15_network_attack_impossible () Bool)
(declare-fun target_TOTAL_001_15_network_attack_impossible () Bool)
(assert (= source_TOTAL_001_15_network_attack_impossible target_TOTAL_001_15_network_attack_impossible))

; TOTAL_001_16_privilege_escalation_impossible: translation preserves property (matches Coq: Theorem)
(declare-fun source_TOTAL_001_16_privilege_escalation_impossible () Bool)
(declare-fun target_TOTAL_001_16_privilege_escalation_impossible () Bool)
(assert (= source_TOTAL_001_16_privilege_escalation_impossible target_TOTAL_001_16_privilege_escalation_impossible))

; TOTAL_001_17_ui_deception_impossible: translation preserves property (matches Coq: Theorem)
(declare-fun source_TOTAL_001_17_ui_deception_impossible () Bool)
(declare-fun target_TOTAL_001_17_ui_deception_impossible () Bool)
(assert (= source_TOTAL_001_17_ui_deception_impossible target_TOTAL_001_17_ui_deception_impossible))

; TOTAL_001_18_boot_compromise_impossible: translation preserves property (matches Coq: Theorem)
(declare-fun source_TOTAL_001_18_boot_compromise_impossible () Bool)
(declare-fun target_TOTAL_001_18_boot_compromise_impossible () Bool)
(assert (= source_TOTAL_001_18_boot_compromise_impossible target_TOTAL_001_18_boot_compromise_impossible))

; TOTAL_001_19_adjacent_layers_compose: translation preserves property (matches Coq: Theorem)
(declare-fun source_TOTAL_001_19_adjacent_layers_compose () Bool)
(declare-fun target_TOTAL_001_19_adjacent_layers_compose () Bool)
(assert (= source_TOTAL_001_19_adjacent_layers_compose target_TOTAL_001_19_adjacent_layers_compose))

; TOTAL_001_20_security_property_transitivity: translation preserves property (matches Coq: Theorem)
(declare-fun source_TOTAL_001_20_security_property_transitivity () Bool)
(declare-fun target_TOTAL_001_20_security_property_transitivity () Bool)
(assert (= source_TOTAL_001_20_security_property_transitivity target_TOTAL_001_20_security_property_transitivity))

; TOTAL_001_21_no_security_gap: translation preserves property (matches Coq: Theorem)
(declare-fun source_TOTAL_001_21_no_security_gap () Bool)
(declare-fun target_TOTAL_001_21_no_security_gap () Bool)
(assert (= source_TOTAL_001_21_no_security_gap target_TOTAL_001_21_no_security_gap))

; TOTAL_001_22_defense_in_depth: translation preserves property (matches Coq: Theorem)
(declare-fun source_TOTAL_001_22_defense_in_depth () Bool)
(declare-fun target_TOTAL_001_22_defense_in_depth () Bool)
(assert (= source_TOTAL_001_22_defense_in_depth target_TOTAL_001_22_defense_in_depth))

; TOTAL_001_23_single_layer_compromise_bounded: translation preserves property (matches Coq: Theorem)
(declare-fun source_TOTAL_001_23_single_layer_compromise_bounded () Bool)
(declare-fun target_TOTAL_001_23_single_layer_compromise_bounded () Bool)
(assert (= source_TOTAL_001_23_single_layer_compromise_bounded target_TOTAL_001_23_single_layer_compromise_bounded))

; TOTAL_001_24_hardware_root_of_trust: translation preserves property (matches Coq: Theorem)
(declare-fun source_TOTAL_001_24_hardware_root_of_trust () Bool)
(declare-fun target_TOTAL_001_24_hardware_root_of_trust () Bool)
(assert (= source_TOTAL_001_24_hardware_root_of_trust target_TOTAL_001_24_hardware_root_of_trust))

; TOTAL_001_25_measured_boot_integrity: translation preserves property (matches Coq: Theorem)
(declare-fun source_TOTAL_001_25_measured_boot_integrity () Bool)
(declare-fun target_TOTAL_001_25_measured_boot_integrity () Bool)
(assert (= source_TOTAL_001_25_measured_boot_integrity target_TOTAL_001_25_measured_boot_integrity))

; TOTAL_001_26_secure_channel_establishment: translation preserves property (matches Coq: Theorem)
(declare-fun source_TOTAL_001_26_secure_channel_establishment () Bool)
(declare-fun target_TOTAL_001_26_secure_channel_establishment () Bool)
(assert (= source_TOTAL_001_26_secure_channel_establishment target_TOTAL_001_26_secure_channel_establishment))

; TOTAL_001_27_capability_delegation: translation preserves property (matches Coq: Theorem)
(declare-fun source_TOTAL_001_27_capability_delegation () Bool)
(declare-fun target_TOTAL_001_27_capability_delegation () Bool)
(assert (= source_TOTAL_001_27_capability_delegation target_TOTAL_001_27_capability_delegation))

; TOTAL_001_28_end_to_end_encryption: translation preserves property (matches Coq: Theorem)
(declare-fun source_TOTAL_001_28_end_to_end_encryption () Bool)
(declare-fun target_TOTAL_001_28_end_to_end_encryption () Bool)
(assert (= source_TOTAL_001_28_end_to_end_encryption target_TOTAL_001_28_end_to_end_encryption))

; TOTAL_001_29_remote_code_execution_impossible: translation preserves property (matches Coq: Theorem)
(declare-fun source_TOTAL_001_29_remote_code_execution_impossible () Bool)
(declare-fun target_TOTAL_001_29_remote_code_execution_impossible () Bool)
(assert (= source_TOTAL_001_29_remote_code_execution_impossible target_TOTAL_001_29_remote_code_execution_impossible))

; TOTAL_001_30_data_exfiltration_impossible: translation preserves property (matches Coq: Theorem)
(declare-fun source_TOTAL_001_30_data_exfiltration_impossible () Bool)
(declare-fun target_TOTAL_001_30_data_exfiltration_impossible () Bool)
(assert (= source_TOTAL_001_30_data_exfiltration_impossible target_TOTAL_001_30_data_exfiltration_impossible))

; TOTAL_001_31_denial_of_service_bounded: translation preserves property (matches Coq: Theorem)
(declare-fun source_TOTAL_001_31_denial_of_service_bounded () Bool)
(declare-fun target_TOTAL_001_31_denial_of_service_bounded () Bool)
(assert (= source_TOTAL_001_31_denial_of_service_bounded target_TOTAL_001_31_denial_of_service_bounded))

; TOTAL_001_32_malware_execution_impossible: translation preserves property (matches Coq: Theorem)
(declare-fun source_TOTAL_001_32_malware_execution_impossible () Bool)
(declare-fun target_TOTAL_001_32_malware_execution_impossible () Bool)
(assert (= source_TOTAL_001_32_malware_execution_impossible target_TOTAL_001_32_malware_execution_impossible))

; TOTAL_001_33_insider_threat_bounded: translation preserves property (matches Coq: Theorem)
(declare-fun source_TOTAL_001_33_insider_threat_bounded () Bool)
(declare-fun target_TOTAL_001_33_insider_threat_bounded () Bool)
(assert (= source_TOTAL_001_33_insider_threat_bounded target_TOTAL_001_33_insider_threat_bounded))

; TOTAL_001_34_all_layer_proofs_compose: translation preserves property (matches Coq: Theorem)
(declare-fun source_TOTAL_001_34_all_layer_proofs_compose () Bool)
(declare-fun target_TOTAL_001_34_all_layer_proofs_compose () Bool)
(assert (= source_TOTAL_001_34_all_layer_proofs_compose target_TOTAL_001_34_all_layer_proofs_compose))

; attack_blocked_by_layer: translation preserves property (matches Coq: Lemma)
(declare-fun source_attack_blocked_by_layer () Bool)
(declare-fun target_attack_blocked_by_layer () Bool)
(assert (= source_attack_blocked_by_layer target_attack_blocked_by_layer))

; TOTAL_001_35_total_stack_security: translation preserves property (matches Coq: Theorem)
(declare-fun source_TOTAL_001_35_total_stack_security () Bool)
(declare-fun target_TOTAL_001_35_total_stack_security () Bool)
(assert (= source_TOTAL_001_35_total_stack_security target_TOTAL_001_35_total_stack_security))

; Verify all translation validations are satisfiable
(check-sat)
(exit)
